benchmark_str_length/p2_10_8-2.dzn
Alphabet = {A,C,G,T};
ns = 10;
nc = 7;
sl = 7;
neighbours = [| I(T),Null,Null,Null,Null,Null,Null | I(T),I(G),I(T),I(A),I(T),I(T),I(G) | I(G),I(G),I(T),I(A),I(G),Null,Null | I(G),I(G),I(T),I(C),I(T),I(G),I(G) | I(T),I(G),Null,Null,Null,Null,Null | I(C),Null,Null,Null,Null,Null,Null | I(A),I(A),I(A),I(C),Null,Null,Null | I(T),Null,Null,Null,Null,Null,Null | I(C),I(G),I(G),I(T),Null,Null,Null | I(A),I(G),I(C),I(C),Null,Null,Null |];
